g9 8 1 0 12 20030626 0 4 1 4	# problem steelpl1
 32 12 1 0 12	# vars, constraints, objectives, ranges, eqns
 0 0	# nonlinear constraints, objectives
 0 0	# network constraints: nonlinear, linear
 0 0 0	# nonlinear vars in constraints, objectives, both
 0 0 0 1	# linear network variables; functions; arith, flags
 0 0 0 0 0	# discrete variables: binary, integer, nonlinear (b,c,o)
 46 28	# nonzeros in Jacobian, gradients
 0 0	# max name lengths: constraints, variables
 0 0 0 0 0	# common exprs: b,c,o,c1,o1
C0
n0
C1
n0
C2
n0
C3
n0
C4
n0
C5
n0
C6
n0
C7
n0
C8
n0
C9
n0
C10
n0
C11
n0
O0 1
n0
r
4 0
4 0
4 0
4 0
4 -10
4 0
4 0
4 0
4 0
4 0
4 0
4 0
b
2 0
2 0
2 0
2 0
2 0
2 0
2 0
2 0
2 0
2 0
2 0
2 0
2 0
2 0
2 0
2 0
0 3000 6000
0 3000 6000
0 3000 4000
0 3000 6500
0 2000 4000
0 2000 2500
0 2000 3500
0 2000 4200
0 29.235714285714284 35
0 0 7
0 3.7571428571428314 35
0 0 7
0 0 30
0 0 10
0 0 35
0 0 7
k31
2
4
6
8
10
12
14
16
18
20
22
23
25
27
29
30
31
32
33
34
35
36
37
38
39
40
41
42
43
44
45
J0 4
0 0.005
4 0.007142857142857143
24 -1
25 -1
J1 4
1 0.005
5 0.007142857142857143
26 -1
27 -1
J2 4
2 0.005
6 0.007142857142857143
28 -1
29 -1
J3 4
3 0.005
7 0.007142857142857143
30 -1
31 -1
J4 3
0 1
8 -1
16 -1
J5 4
1 1
8 1
9 -1
17 -1
J6 4
2 1
9 1
10 -1
18 -1
J7 4
3 1
10 1
11 -1
19 -1
J8 3
4 1
12 -1
20 -1
J9 4
5 1
12 1
13 -1
21 -1
J10 4
6 1
13 1
14 -1
22 -1
J11 4
7 1
14 1
15 -1
23 -1
G0 28
0 -10
1 -10
2 -10
3 -10
4 -11
5 -11
6 -11
7 -11
8 -2.5
9 -2.5
10 -2.5
11 -2.5
12 -3
13 -3
14 -3
15 -3
16 25
17 26
18 27
19 27
20 30
21 35
22 37
23 39
25 -3100
27 -3000
29 -3700
31 -3100
